Solving original (integer) problem with strategy gdp.hull_exact...
--- Job model.gms Start 02/15/26 21:38:09 52.2.0 d8e408be LEX-LEG x86 64bit/Linux
--- Applying:
    /package/gams/52.2/gmsprmun.txt
--- GAMS Parameters defined
    Input /local/scratch/a/sgusev/repos/k_means/data/gams_scip_gdp.hull_exact/no_mode/2026-02-15_21-38-09/original/model.gms
    Output /local/scratch/a/sgusev/repos/k_means/data/gams_scip_gdp.hull_exact/no_mode/2026-02-15_21-38-09/original/output.lst
    ScrDir /local/scratch/a/sgusev/repos/k_means/data/gams_scip_gdp.hull_exact/no_mode/2026-02-15_21-38-09/original/225a/
    SysDir /package/gams/52.2/
    CurDir /local/scratch/a/sgusev/repos/k_means/data/gams_scip_gdp.hull_exact/no_mode/2026-02-15_21-38-09/original/
    LogOption 3
    AppendLog 1
Licensee: David Bernal / SECQUOIA Research Group         G251008+0003Ac-GEN
          Purdue University, Davidson School of Chemical EngineeringDCE4838
          225a/gamslice.dat
          5a82958a-fbca-4a23
          node:66820903 mem:995 cores:48 ipport:33943 v:2                  
          Evaluation license: Not for commercial or production use
          The time-limited license stops working on : Jun 30, 2027
System information: 48 physical cores and 995 Gb physical memory detected
GAMS 52.2.0   Copyright (C) 1987-2025 GAMS Development. All rights reserved
--- Starting compilation
--- model.gms(1283) 2 Mb
--- $echo File /local/scratch/a/sgusev/repos/k_means/data/gams_scip_gdp.hull_exact/no_mode/2026-02-15_21-38-09/original/scip.opt
--- model.gms(1930) 2 Mb
--- Starting execution: elapsed 0:00:00.010
--- model.gms(1293) 3 Mb
--- Generating MINLP model GAMS_MODEL
--- model.gms(1297) 5 Mb
---   383 rows  197 columns  925 non-zeroes
---   630 nl-code  120 nl-non-zeroes
---   30 discrete-columns
--- Range statistics (absolute non-zero finite values)
--- RHS       [min, max] : [ 1.000E+00, 1.000E+00] - Zero values observed as well
--- Bound     [min, max] : [ 1.000E+00, 4.000E+01] - Zero values observed as well
--- Matrix    [min, max] : [ 1.000E+00, 4.000E+01] - Zero values observed as well
--- model.gms(1297) 3 Mb
--- Executing SCIP (Solvelink=5): elapsed 0:00:00.014

SCIP             52.2.0 d8e408be Dec 8, 2025           LEG x86 64bit/Linux    
SCIP version 9.2.4 (a94f778ac8)
Copyright (c) 2002-2025 Zuse Institute Berlin (ZIB)

External libraries: 
  CPLEX 22.1.2.0       Linear Programming Solver developed by IBM (www.cplex.com)
  CppAD 20180000.0     Algorithmic Differentiation of C++ algorithms developed by B. Bell (github.com/coin-or/CppAD)
  PaPILO 2.4.4         parallel presolve for integer and linear optimization (github.com/scipopt/papilo) (built with TBB) [GitHash: 7c826d50]
  Nauty 2.8.9          Computing Graph Automorphism Groups by Brendan D. McKay (users.cecs.anu.edu.au/~bdm/nauty)
  sassy 1.1            Symmetry preprocessor by Markus Anders (github.com/markusa4/sassy)
  Ipopt 3.14.19        Interior Point Optimizer developed by A. Waechter et.al. (github.com/coin-or/Ipopt)

reading option file /local/scratch/a/sgusev/repos/k_means/data/gams_scip_gdp.hull_exact/no_mode/2026-02-15_21-38-09/original/scip.opt
non-default parameter settings:
limits/time = 300
limits/gap = 1e-06
limits/absgap = 1e-10
lp/threads = 1
misc/printreason = FALSE
numerics/dualfeastol = 1e-06
parallel/maxnthreads = 1
nlpi/ipopt/linear_solver = "ma27"
nlpi/ipopt/linear_system_scaling = "mc19"

original problem has 196 variables (30 bin, 0 int, 166 cont) and 382 constraints

all 1 solutions given by solution candidate storage are infeasible

presolving:
(round 1, fast)       10 del vars, 0 del conss, 0 add conss, 0 chg bounds, 0 chg sides, 0 chg coeffs, 0 upgd conss, 0 impls, 10 clqs
(round 2, fast)       10 del vars, 0 del conss, 0 add conss, 0 chg bounds, 10 chg sides, 0 chg coeffs, 0 upgd conss, 0 impls, 10 clqs
(round 3, exhaustive) 10 del vars, 0 del conss, 0 add conss, 0 chg bounds, 10 chg sides, 0 chg coeffs, 280 upgd conss, 0 impls, 10 clqs
   (0.0s) probing cycle finished: starting next cycle
   (0.0s) symmetry computation started: requiring (bin +, int +, cont +), (fixed: bin -, int -, cont -)
   (0.0s) no symmetry present (symcode time: 0.00)
presolving (4 rounds: 4 fast, 2 medium, 2 exhaustive):
 10 deleted vars, 0 deleted constraints, 0 added constraints, 0 tightened bounds, 0 added holes, 10 changed sides, 0 changed coefficients
 570 implications, 10 cliques
presolved problem has 186 variables (30 bin, 0 int, 0 impl, 156 cont) and 382 constraints
    270 constraints of type <varbound>
     10 constraints of type <setppc>
     72 constraints of type <linear>
     30 constraints of type <nonlinear>
Presolving Time: 0.01

 time | node  | left  |LP iter|LP it/n|mem/heur|mdpt |vars |cons |rows |cuts |sepa|confs|strbr|  dualbound   | primalbound  |  gap   | compl. 
  0.0s|     1 |     0 |   135 |     - |  4920k |   0 | 366 | 382 | 592 |   0 |  0 |   0 |   0 | 0.000000e+00 |      --      |    Inf | unknown
p 0.1s|     1 |     0 |   201 |     - |  clique|   0 | 366 | 382 | 592 |   0 |  0 |   0 |   0 | 0.000000e+00 | 8.162471e+00 |    Inf | unknown
  0.1s|     1 |     0 |   295 |     - |  5368k |   0 | 366 | 382 | 638 |  46 |  1 |   0 |   0 | 0.000000e+00 | 8.162471e+00 |    Inf | unknown
  0.1s|     1 |     0 |   295 |     - |  5376k |   0 | 366 | 382 | 628 |  46 |  1 |   0 |   0 | 0.000000e+00 | 8.162471e+00 |    Inf | unknown
  0.1s|     1 |     0 |   345 |     - |  5523k |   0 | 366 | 382 | 669 |  87 |  2 |   0 |   0 | 0.000000e+00 | 8.162471e+00 |    Inf | unknown
  0.1s|     1 |     0 |   381 |     - |  5625k |   0 | 366 | 382 | 703 | 121 |  3 |   0 |   0 | 0.000000e+00 | 8.162471e+00 |    Inf | unknown
  0.1s|     1 |     0 |   435 |     - |  5744k |   0 | 366 | 382 | 739 | 157 |  4 |   0 |   0 | 0.000000e+00 | 8.162471e+00 |    Inf | unknown
  0.1s|     1 |     0 |   489 |     - |  5883k |   0 | 366 | 382 | 775 | 193 |  5 |   0 |   0 | 0.000000e+00 | 8.162471e+00 |    Inf | unknown
  0.1s|     1 |     0 |   560 |     - |  5902k |   0 | 366 | 382 | 806 | 224 |  6 |   0 |   0 | 0.000000e+00 | 8.162471e+00 |    Inf | unknown
  0.1s|     1 |     0 |   619 |     - |  6019k |   0 | 366 | 382 | 839 | 257 |  7 |   0 |   0 | 0.000000e+00 | 8.162471e+00 |    Inf | unknown
  0.2s|     1 |     0 |   669 |     - |  6280k |   0 | 366 | 382 | 871 | 289 |  8 |   0 |   0 | 0.000000e+00 | 8.162471e+00 |    Inf | unknown
  0.2s|     1 |     0 |   717 |     - |  6888k |   0 | 366 | 382 | 898 | 316 |  9 |   0 |   0 | 0.000000e+00 | 8.162471e+00 |    Inf | unknown
  0.2s|     1 |     0 |   759 |     - |  7018k |   0 | 366 | 382 | 921 | 339 | 10 |   0 |   0 | 0.000000e+00 | 8.162471e+00 |    Inf | unknown
  0.2s|     1 |     0 |   799 |     - |  7121k |   0 | 366 | 382 | 754 | 364 | 11 |   0 |   0 | 0.000000e+00 | 8.162471e+00 |    Inf | unknown
  0.2s|     1 |     0 |   842 |     - |  7200k |   0 | 366 | 382 | 774 | 384 | 12 |   0 |   0 | 0.000000e+00 | 8.162471e+00 |    Inf | unknown
 time | node  | left  |LP iter|LP it/n|mem/heur|mdpt |vars |cons |rows |cuts |sepa|confs|strbr|  dualbound   | primalbound  |  gap   | compl. 
  0.3s|     1 |     0 |   865 |     - |  7336k |   0 | 366 | 382 | 793 | 403 | 13 |   0 |   0 | 0.000000e+00 | 8.162471e+00 |    Inf | unknown
  0.3s|     1 |     0 |   890 |     - |  7422k |   0 | 366 | 382 | 809 | 419 | 14 |   0 |   0 | 0.000000e+00 | 8.162471e+00 |    Inf | unknown
  0.3s|     1 |     0 |   923 |     - |  7540k |   0 | 366 | 382 | 828 | 438 | 15 |   0 |   0 | 0.000000e+00 | 8.162471e+00 |    Inf | unknown
L 0.4s|     1 |     0 |  2915 |     - |    alns|   0 | 366 | 372 | 828 | 438 | 15 |   0 |   0 | 0.000000e+00 | 6.075912e+00 |    Inf | unknown
L 0.5s|     1 |     0 |  2915 |     - |    alns|   0 | 366 | 372 | 828 | 438 | 15 |   0 |   0 | 0.000000e+00 | 6.075908e+00 |    Inf | unknown
L 0.5s|     1 |     0 |  2915 |     - |    alns|   0 | 366 | 372 | 828 | 438 | 15 |   0 |   0 | 0.000000e+00 | 5.983638e+00 |    Inf | unknown
  0.8s|     1 |     0 |  2915 |     - |  8431k |   0 | 366 | 372 | 828 | 438 | 15 |   0 |   0 | 0.000000e+00 | 5.983638e+00 |    Inf | unknown
  0.9s|     1 |     0 |  2942 |     - |  8510k |   0 | 366 | 372 | 844 | 454 | 16 |   0 |   0 | 0.000000e+00 | 5.983638e+00 |    Inf | unknown
  0.9s|     1 |     0 |  2950 |     - |  8521k |   0 | 366 | 372 | 849 | 459 | 17 |   0 |   0 | 0.000000e+00 | 5.983638e+00 |    Inf | unknown
  0.9s|     1 |     2 |  2950 |     - |  8538k |   0 | 366 | 372 | 849 | 459 | 17 |   0 |  19 | 0.000000e+00 | 5.983638e+00 |    Inf | unknown
L 1.0s|    11 |    11 |  3916 | 296.7 |  subnlp|  10 | 366 | 372 | 797 |1049 |  7 |   0 |  67 | 0.000000e+00 | 5.867004e+00 |    Inf | unknown
* 1.0s|    12 |    10 |  3988 | 276.3 |    LP  |  11 | 366 | 372 | 838 |1142 |  7 |   0 |  67 | 0.000000e+00 | 5.867002e+00 |    Inf | unknown
d 1.1s|    16 |    13 |  4621 | 244.8 |pscostdi|  11 | 366 | 372 | 687 |1369 |  7 |   0 |  80 | 0.000000e+00 | 4.630036e+00 |    Inf | unknown
o 1.4s|    55 |    51 |  8943 | 148.0 |objpscos|  12 | 366 | 372 | 837 |3523 |  6 |   0 | 130 | 0.000000e+00 | 4.234671e+00 |    Inf | unknown
r 1.5s|    61 |    55 |  9799 | 147.5 |shifting|  12 | 366 | 372 | 818 |3868 |  9 |   0 | 136 | 0.000000e+00 | 3.643375e+00 |    Inf |   0.92%
 time | node  | left  |LP iter|LP it/n|mem/heur|mdpt |vars |cons |rows |cuts |sepa|confs|strbr|  dualbound   | primalbound  |  gap   | compl. 
d 1.7s|    97 |    67 | 13667 | 132.5 |nlpdivin|  17 | 366 | 372 | 869 |   0 |  7 |   0 | 139 | 0.000000e+00 | 1.780065e+00 |    Inf |   5.86%
  1.7s|   100 |    70 | 14218 | 134.0 |    14M |  17 | 366 | 372 | 829 |5808 |  4 |   0 | 140 | 0.000000e+00 | 1.780065e+00 |    Inf |   7.97%
  2.3s|   200 |   122 | 23596 | 113.8 |    16M |  18 | 366 | 372 | 788 |9692 |  7 |  14 | 140 | 2.045108e-01 | 1.780065e+00 | 770.40%|  25.51%
* 2.5s|   249 |   127 | 26531 | 103.2 |    LP  |  19 | 366 | 372 | 881 |  11k| 10 |  16 | 140 | 2.561730e-01 | 1.780060e+00 | 594.87%|  34.25%
  2.7s|   300 |   124 | 29650 |  96.0 |    17M |  19 | 366 | 372 | 804 |  12k|  5 |  21 | 140 | 5.226665e-01 | 1.780060e+00 | 240.57%|  50.00%
  3.0s|   400 |   120 | 34141 |  83.2 |    18M |  19 | 366 | 372 | 762 |  14k|  4 |  26 | 140 | 7.236112e-01 | 1.780060e+00 | 146.00%|  68.87%
  3.3s|   500 |    96 | 37124 |  72.5 |    19M |  19 | 366 | 372 | 764 |  15k|  7 |  30 | 140 | 1.133342e+00 | 1.780060e+00 |  57.06%|  81.08%
  3.6s|   600 |    64 | 40052 |  65.3 |    19M |  19 | 366 | 372 | 752 |  16k|  2 |  34 | 142 | 1.311505e+00 | 1.780060e+00 |  35.73%|  88.56%
  3.8s|   700 |    26 | 43646 |  61.1 |    20M |  19 | 366 | 372 | 744 |  17k|  0 |  43 | 149 | 1.491690e+00 | 1.780060e+00 |  19.33%|  95.24%

SCIP Status        : problem is solved [optimal solution found]
Solving Time (sec) : 3.90
Solving Nodes      : 740
Primal Bound       : +1.78006049494816e+00 (13 solutions)
Dual Bound         : +1.78006049494816e+00
Gap                : 0.00 %


--- Reading solution for model GAMS_MODEL
***
*** Solver did not provide marginals for model GAMS_MODEL
***
--- Executing after solve: elapsed 0:00:03.971
--- model.gms(1300) 3 Mb
--- model.gms(1930) 5 Mb
--- Putfile results /local/scratch/a/sgusev/repos/k_means/data/gams_scip_gdp.hull_exact/no_mode/2026-02-15_21-38-09/original/results.dat
--- Putfile statresults /local/scratch/a/sgusev/repos/k_means/data/gams_scip_gdp.hull_exact/no_mode/2026-02-15_21-38-09/original/resultsstat.dat
*** Status: Normal completion
--- Job model.gms Stop 02/15/26 21:38:13 elapsed 0:00:03.972
Original problem solved. Time taken: 4.532470941543579 seconds
Original objective value: 1.780060494948164
